c *********************************
c * Circuit generated by BenCGen
c *
c * RippleCarryAdder_76_76_76_InOutT
c *
c * Ports with 1 gate(s): 1
c * Ports with 2 gate(s): 381
c * Total gates: 382
c *********************************
p cnf 534 1297
1 231 0
-1 -231 0
1 -230 0
231 -230 0
-1 -231 230 0
1 77 -233 0
-1 77 233 0
1 -77 233 0
-1 -77 -233 0
233 230 -153 0
-233 230 153 0
233 -230 153 0
-233 -230 -153 0
230 -234 0
233 -234 0
-230 -233 234 0
77 -235 0
1 -235 0
-77 -1 235 0
-234 232 0
-235 232 0
234 235 -232 0
2 78 -237 0
-2 78 237 0
2 -78 237 0
-2 -78 -237 0
237 232 -154 0
-237 232 154 0
237 -232 154 0
-237 -232 -154 0
232 -238 0
237 -238 0
-232 -237 238 0
78 -239 0
2 -239 0
-78 -2 239 0
-238 236 0
-239 236 0
238 239 -236 0
3 79 -241 0
-3 79 241 0
3 -79 241 0
-3 -79 -241 0
241 236 -155 0
-241 236 155 0
241 -236 155 0
-241 -236 -155 0
236 -242 0
241 -242 0
-236 -241 242 0
79 -243 0
3 -243 0
-79 -3 243 0
-242 240 0
-243 240 0
242 243 -240 0
4 80 -245 0
-4 80 245 0
4 -80 245 0
-4 -80 -245 0
245 240 -156 0
-245 240 156 0
245 -240 156 0
-245 -240 -156 0
240 -246 0
245 -246 0
-240 -245 246 0
80 -247 0
4 -247 0
-80 -4 247 0
-246 244 0
-247 244 0
246 247 -244 0
5 81 -249 0
-5 81 249 0
5 -81 249 0
-5 -81 -249 0
249 244 -157 0
-249 244 157 0
249 -244 157 0
-249 -244 -157 0
244 -250 0
249 -250 0
-244 -249 250 0
81 -251 0
5 -251 0
-81 -5 251 0
-250 248 0
-251 248 0
250 251 -248 0
6 82 -253 0
-6 82 253 0
6 -82 253 0
-6 -82 -253 0
253 248 -158 0
-253 248 158 0
253 -248 158 0
-253 -248 -158 0
248 -254 0
253 -254 0
-248 -253 254 0
82 -255 0
6 -255 0
-82 -6 255 0
-254 252 0
-255 252 0
254 255 -252 0
7 83 -257 0
-7 83 257 0
7 -83 257 0
-7 -83 -257 0
257 252 -159 0
-257 252 159 0
257 -252 159 0
-257 -252 -159 0
252 -258 0
257 -258 0
-252 -257 258 0
83 -259 0
7 -259 0
-83 -7 259 0
-258 256 0
-259 256 0
258 259 -256 0
8 84 -261 0
-8 84 261 0
8 -84 261 0
-8 -84 -261 0
261 256 -160 0
-261 256 160 0
261 -256 160 0
-261 -256 -160 0
256 -262 0
261 -262 0
-256 -261 262 0
84 -263 0
8 -263 0
-84 -8 263 0
-262 260 0
-263 260 0
262 263 -260 0
9 85 -265 0
-9 85 265 0
9 -85 265 0
-9 -85 -265 0
265 260 -161 0
-265 260 161 0
265 -260 161 0
-265 -260 -161 0
260 -266 0
265 -266 0
-260 -265 266 0
85 -267 0
9 -267 0
-85 -9 267 0
-266 264 0
-267 264 0
266 267 -264 0
10 86 -269 0
-10 86 269 0
10 -86 269 0
-10 -86 -269 0
269 264 -162 0
-269 264 162 0
269 -264 162 0
-269 -264 -162 0
264 -270 0
269 -270 0
-264 -269 270 0
86 -271 0
10 -271 0
-86 -10 271 0
-270 268 0
-271 268 0
270 271 -268 0
11 87 -273 0
-11 87 273 0
11 -87 273 0
-11 -87 -273 0
273 268 -163 0
-273 268 163 0
273 -268 163 0
-273 -268 -163 0
268 -274 0
273 -274 0
-268 -273 274 0
87 -275 0
11 -275 0
-87 -11 275 0
-274 272 0
-275 272 0
274 275 -272 0
12 88 -277 0
-12 88 277 0
12 -88 277 0
-12 -88 -277 0
277 272 -164 0
-277 272 164 0
277 -272 164 0
-277 -272 -164 0
272 -278 0
277 -278 0
-272 -277 278 0
88 -279 0
12 -279 0
-88 -12 279 0
-278 276 0
-279 276 0
278 279 -276 0
13 89 -281 0
-13 89 281 0
13 -89 281 0
-13 -89 -281 0
281 276 -165 0
-281 276 165 0
281 -276 165 0
-281 -276 -165 0
276 -282 0
281 -282 0
-276 -281 282 0
89 -283 0
13 -283 0
-89 -13 283 0
-282 280 0
-283 280 0
282 283 -280 0
14 90 -285 0
-14 90 285 0
14 -90 285 0
-14 -90 -285 0
285 280 -166 0
-285 280 166 0
285 -280 166 0
-285 -280 -166 0
280 -286 0
285 -286 0
-280 -285 286 0
90 -287 0
14 -287 0
-90 -14 287 0
-286 284 0
-287 284 0
286 287 -284 0
15 91 -289 0
-15 91 289 0
15 -91 289 0
-15 -91 -289 0
289 284 -167 0
-289 284 167 0
289 -284 167 0
-289 -284 -167 0
284 -290 0
289 -290 0
-284 -289 290 0
91 -291 0
15 -291 0
-91 -15 291 0
-290 288 0
-291 288 0
290 291 -288 0
16 92 -293 0
-16 92 293 0
16 -92 293 0
-16 -92 -293 0
293 288 -168 0
-293 288 168 0
293 -288 168 0
-293 -288 -168 0
288 -294 0
293 -294 0
-288 -293 294 0
92 -295 0
16 -295 0
-92 -16 295 0
-294 292 0
-295 292 0
294 295 -292 0
17 93 -297 0
-17 93 297 0
17 -93 297 0
-17 -93 -297 0
297 292 -169 0
-297 292 169 0
297 -292 169 0
-297 -292 -169 0
292 -298 0
297 -298 0
-292 -297 298 0
93 -299 0
17 -299 0
-93 -17 299 0
-298 296 0
-299 296 0
298 299 -296 0
18 94 -301 0
-18 94 301 0
18 -94 301 0
-18 -94 -301 0
301 296 -170 0
-301 296 170 0
301 -296 170 0
-301 -296 -170 0
296 -302 0
301 -302 0
-296 -301 302 0
94 -303 0
18 -303 0
-94 -18 303 0
-302 300 0
-303 300 0
302 303 -300 0
19 95 -305 0
-19 95 305 0
19 -95 305 0
-19 -95 -305 0
305 300 -171 0
-305 300 171 0
305 -300 171 0
-305 -300 -171 0
300 -306 0
305 -306 0
-300 -305 306 0
95 -307 0
19 -307 0
-95 -19 307 0
-306 304 0
-307 304 0
306 307 -304 0
20 96 -309 0
-20 96 309 0
20 -96 309 0
-20 -96 -309 0
309 304 -172 0
-309 304 172 0
309 -304 172 0
-309 -304 -172 0
304 -310 0
309 -310 0
-304 -309 310 0
96 -311 0
20 -311 0
-96 -20 311 0
-310 308 0
-311 308 0
310 311 -308 0
21 97 -313 0
-21 97 313 0
21 -97 313 0
-21 -97 -313 0
313 308 -173 0
-313 308 173 0
313 -308 173 0
-313 -308 -173 0
308 -314 0
313 -314 0
-308 -313 314 0
97 -315 0
21 -315 0
-97 -21 315 0
-314 312 0
-315 312 0
314 315 -312 0
22 98 -317 0
-22 98 317 0
22 -98 317 0
-22 -98 -317 0
317 312 -174 0
-317 312 174 0
317 -312 174 0
-317 -312 -174 0
312 -318 0
317 -318 0
-312 -317 318 0
98 -319 0
22 -319 0
-98 -22 319 0
-318 316 0
-319 316 0
318 319 -316 0
23 99 -321 0
-23 99 321 0
23 -99 321 0
-23 -99 -321 0
321 316 -175 0
-321 316 175 0
321 -316 175 0
-321 -316 -175 0
316 -322 0
321 -322 0
-316 -321 322 0
99 -323 0
23 -323 0
-99 -23 323 0
-322 320 0
-323 320 0
322 323 -320 0
24 100 -325 0
-24 100 325 0
24 -100 325 0
-24 -100 -325 0
325 320 -176 0
-325 320 176 0
325 -320 176 0
-325 -320 -176 0
320 -326 0
325 -326 0
-320 -325 326 0
100 -327 0
24 -327 0
-100 -24 327 0
-326 324 0
-327 324 0
326 327 -324 0
25 101 -329 0
-25 101 329 0
25 -101 329 0
-25 -101 -329 0
329 324 -177 0
-329 324 177 0
329 -324 177 0
-329 -324 -177 0
324 -330 0
329 -330 0
-324 -329 330 0
101 -331 0
25 -331 0
-101 -25 331 0
-330 328 0
-331 328 0
330 331 -328 0
26 102 -333 0
-26 102 333 0
26 -102 333 0
-26 -102 -333 0
333 328 -178 0
-333 328 178 0
333 -328 178 0
-333 -328 -178 0
328 -334 0
333 -334 0
-328 -333 334 0
102 -335 0
26 -335 0
-102 -26 335 0
-334 332 0
-335 332 0
334 335 -332 0
27 103 -337 0
-27 103 337 0
27 -103 337 0
-27 -103 -337 0
337 332 -179 0
-337 332 179 0
337 -332 179 0
-337 -332 -179 0
332 -338 0
337 -338 0
-332 -337 338 0
103 -339 0
27 -339 0
-103 -27 339 0
-338 336 0
-339 336 0
338 339 -336 0
28 104 -341 0
-28 104 341 0
28 -104 341 0
-28 -104 -341 0
341 336 -180 0
-341 336 180 0
341 -336 180 0
-341 -336 -180 0
336 -342 0
341 -342 0
-336 -341 342 0
104 -343 0
28 -343 0
-104 -28 343 0
-342 340 0
-343 340 0
342 343 -340 0
29 105 -345 0
-29 105 345 0
29 -105 345 0
-29 -105 -345 0
345 340 -181 0
-345 340 181 0
345 -340 181 0
-345 -340 -181 0
340 -346 0
345 -346 0
-340 -345 346 0
105 -347 0
29 -347 0
-105 -29 347 0
-346 344 0
-347 344 0
346 347 -344 0
30 106 -349 0
-30 106 349 0
30 -106 349 0
-30 -106 -349 0
349 344 -182 0
-349 344 182 0
349 -344 182 0
-349 -344 -182 0
344 -350 0
349 -350 0
-344 -349 350 0
106 -351 0
30 -351 0
-106 -30 351 0
-350 348 0
-351 348 0
350 351 -348 0
31 107 -353 0
-31 107 353 0
31 -107 353 0
-31 -107 -353 0
353 348 -183 0
-353 348 183 0
353 -348 183 0
-353 -348 -183 0
348 -354 0
353 -354 0
-348 -353 354 0
107 -355 0
31 -355 0
-107 -31 355 0
-354 352 0
-355 352 0
354 355 -352 0
32 108 -357 0
-32 108 357 0
32 -108 357 0
-32 -108 -357 0
357 352 -184 0
-357 352 184 0
357 -352 184 0
-357 -352 -184 0
352 -358 0
357 -358 0
-352 -357 358 0
108 -359 0
32 -359 0
-108 -32 359 0
-358 356 0
-359 356 0
358 359 -356 0
33 109 -361 0
-33 109 361 0
33 -109 361 0
-33 -109 -361 0
361 356 -185 0
-361 356 185 0
361 -356 185 0
-361 -356 -185 0
356 -362 0
361 -362 0
-356 -361 362 0
109 -363 0
33 -363 0
-109 -33 363 0
-362 360 0
-363 360 0
362 363 -360 0
34 110 -365 0
-34 110 365 0
34 -110 365 0
-34 -110 -365 0
365 360 -186 0
-365 360 186 0
365 -360 186 0
-365 -360 -186 0
360 -366 0
365 -366 0
-360 -365 366 0
110 -367 0
34 -367 0
-110 -34 367 0
-366 364 0
-367 364 0
366 367 -364 0
35 111 -369 0
-35 111 369 0
35 -111 369 0
-35 -111 -369 0
369 364 -187 0
-369 364 187 0
369 -364 187 0
-369 -364 -187 0
364 -370 0
369 -370 0
-364 -369 370 0
111 -371 0
35 -371 0
-111 -35 371 0
-370 368 0
-371 368 0
370 371 -368 0
36 112 -373 0
-36 112 373 0
36 -112 373 0
-36 -112 -373 0
373 368 -188 0
-373 368 188 0
373 -368 188 0
-373 -368 -188 0
368 -374 0
373 -374 0
-368 -373 374 0
112 -375 0
36 -375 0
-112 -36 375 0
-374 372 0
-375 372 0
374 375 -372 0
37 113 -377 0
-37 113 377 0
37 -113 377 0
-37 -113 -377 0
377 372 -189 0
-377 372 189 0
377 -372 189 0
-377 -372 -189 0
372 -378 0
377 -378 0
-372 -377 378 0
113 -379 0
37 -379 0
-113 -37 379 0
-378 376 0
-379 376 0
378 379 -376 0
38 114 -381 0
-38 114 381 0
38 -114 381 0
-38 -114 -381 0
381 376 -190 0
-381 376 190 0
381 -376 190 0
-381 -376 -190 0
376 -382 0
381 -382 0
-376 -381 382 0
114 -383 0
38 -383 0
-114 -38 383 0
-382 380 0
-383 380 0
382 383 -380 0
39 115 -385 0
-39 115 385 0
39 -115 385 0
-39 -115 -385 0
385 380 -191 0
-385 380 191 0
385 -380 191 0
-385 -380 -191 0
380 -386 0
385 -386 0
-380 -385 386 0
115 -387 0
39 -387 0
-115 -39 387 0
-386 384 0
-387 384 0
386 387 -384 0
40 116 -389 0
-40 116 389 0
40 -116 389 0
-40 -116 -389 0
389 384 -192 0
-389 384 192 0
389 -384 192 0
-389 -384 -192 0
384 -390 0
389 -390 0
-384 -389 390 0
116 -391 0
40 -391 0
-116 -40 391 0
-390 388 0
-391 388 0
390 391 -388 0
41 117 -393 0
-41 117 393 0
41 -117 393 0
-41 -117 -393 0
393 388 -193 0
-393 388 193 0
393 -388 193 0
-393 -388 -193 0
388 -394 0
393 -394 0
-388 -393 394 0
117 -395 0
41 -395 0
-117 -41 395 0
-394 392 0
-395 392 0
394 395 -392 0
42 118 -397 0
-42 118 397 0
42 -118 397 0
-42 -118 -397 0
397 392 -194 0
-397 392 194 0
397 -392 194 0
-397 -392 -194 0
392 -398 0
397 -398 0
-392 -397 398 0
118 -399 0
42 -399 0
-118 -42 399 0
-398 396 0
-399 396 0
398 399 -396 0
43 119 -401 0
-43 119 401 0
43 -119 401 0
-43 -119 -401 0
401 396 -195 0
-401 396 195 0
401 -396 195 0
-401 -396 -195 0
396 -402 0
401 -402 0
-396 -401 402 0
119 -403 0
43 -403 0
-119 -43 403 0
-402 400 0
-403 400 0
402 403 -400 0
44 120 -405 0
-44 120 405 0
44 -120 405 0
-44 -120 -405 0
405 400 -196 0
-405 400 196 0
405 -400 196 0
-405 -400 -196 0
400 -406 0
405 -406 0
-400 -405 406 0
120 -407 0
44 -407 0
-120 -44 407 0
-406 404 0
-407 404 0
406 407 -404 0
45 121 -409 0
-45 121 409 0
45 -121 409 0
-45 -121 -409 0
409 404 -197 0
-409 404 197 0
409 -404 197 0
-409 -404 -197 0
404 -410 0
409 -410 0
-404 -409 410 0
121 -411 0
45 -411 0
-121 -45 411 0
-410 408 0
-411 408 0
410 411 -408 0
46 122 -413 0
-46 122 413 0
46 -122 413 0
-46 -122 -413 0
413 408 -198 0
-413 408 198 0
413 -408 198 0
-413 -408 -198 0
408 -414 0
413 -414 0
-408 -413 414 0
122 -415 0
46 -415 0
-122 -46 415 0
-414 412 0
-415 412 0
414 415 -412 0
47 123 -417 0
-47 123 417 0
47 -123 417 0
-47 -123 -417 0
417 412 -199 0
-417 412 199 0
417 -412 199 0
-417 -412 -199 0
412 -418 0
417 -418 0
-412 -417 418 0
123 -419 0
47 -419 0
-123 -47 419 0
-418 416 0
-419 416 0
418 419 -416 0
48 124 -421 0
-48 124 421 0
48 -124 421 0
-48 -124 -421 0
421 416 -200 0
-421 416 200 0
421 -416 200 0
-421 -416 -200 0
416 -422 0
421 -422 0
-416 -421 422 0
124 -423 0
48 -423 0
-124 -48 423 0
-422 420 0
-423 420 0
422 423 -420 0
49 125 -425 0
-49 125 425 0
49 -125 425 0
-49 -125 -425 0
425 420 -201 0
-425 420 201 0
425 -420 201 0
-425 -420 -201 0
420 -426 0
425 -426 0
-420 -425 426 0
125 -427 0
49 -427 0
-125 -49 427 0
-426 424 0
-427 424 0
426 427 -424 0
50 126 -429 0
-50 126 429 0
50 -126 429 0
-50 -126 -429 0
429 424 -202 0
-429 424 202 0
429 -424 202 0
-429 -424 -202 0
424 -430 0
429 -430 0
-424 -429 430 0
126 -431 0
50 -431 0
-126 -50 431 0
-430 428 0
-431 428 0
430 431 -428 0
51 127 -433 0
-51 127 433 0
51 -127 433 0
-51 -127 -433 0
433 428 -203 0
-433 428 203 0
433 -428 203 0
-433 -428 -203 0
428 -434 0
433 -434 0
-428 -433 434 0
127 -435 0
51 -435 0
-127 -51 435 0
-434 432 0
-435 432 0
434 435 -432 0
52 128 -437 0
-52 128 437 0
52 -128 437 0
-52 -128 -437 0
437 432 -204 0
-437 432 204 0
437 -432 204 0
-437 -432 -204 0
432 -438 0
437 -438 0
-432 -437 438 0
128 -439 0
52 -439 0
-128 -52 439 0
-438 436 0
-439 436 0
438 439 -436 0
53 129 -441 0
-53 129 441 0
53 -129 441 0
-53 -129 -441 0
441 436 -205 0
-441 436 205 0
441 -436 205 0
-441 -436 -205 0
436 -442 0
441 -442 0
-436 -441 442 0
129 -443 0
53 -443 0
-129 -53 443 0
-442 440 0
-443 440 0
442 443 -440 0
54 130 -445 0
-54 130 445 0
54 -130 445 0
-54 -130 -445 0
445 440 -206 0
-445 440 206 0
445 -440 206 0
-445 -440 -206 0
440 -446 0
445 -446 0
-440 -445 446 0
130 -447 0
54 -447 0
-130 -54 447 0
-446 444 0
-447 444 0
446 447 -444 0
55 131 -449 0
-55 131 449 0
55 -131 449 0
-55 -131 -449 0
449 444 -207 0
-449 444 207 0
449 -444 207 0
-449 -444 -207 0
444 -450 0
449 -450 0
-444 -449 450 0
131 -451 0
55 -451 0
-131 -55 451 0
-450 448 0
-451 448 0
450 451 -448 0
56 132 -453 0
-56 132 453 0
56 -132 453 0
-56 -132 -453 0
453 448 -208 0
-453 448 208 0
453 -448 208 0
-453 -448 -208 0
448 -454 0
453 -454 0
-448 -453 454 0
132 -455 0
56 -455 0
-132 -56 455 0
-454 452 0
-455 452 0
454 455 -452 0
57 133 -457 0
-57 133 457 0
57 -133 457 0
-57 -133 -457 0
457 452 -209 0
-457 452 209 0
457 -452 209 0
-457 -452 -209 0
452 -458 0
457 -458 0
-452 -457 458 0
133 -459 0
57 -459 0
-133 -57 459 0
-458 456 0
-459 456 0
458 459 -456 0
58 134 -461 0
-58 134 461 0
58 -134 461 0
-58 -134 -461 0
461 456 -210 0
-461 456 210 0
461 -456 210 0
-461 -456 -210 0
456 -462 0
461 -462 0
-456 -461 462 0
134 -463 0
58 -463 0
-134 -58 463 0
-462 460 0
-463 460 0
462 463 -460 0
59 135 -465 0
-59 135 465 0
59 -135 465 0
-59 -135 -465 0
465 460 -211 0
-465 460 211 0
465 -460 211 0
-465 -460 -211 0
460 -466 0
465 -466 0
-460 -465 466 0
135 -467 0
59 -467 0
-135 -59 467 0
-466 464 0
-467 464 0
466 467 -464 0
60 136 -469 0
-60 136 469 0
60 -136 469 0
-60 -136 -469 0
469 464 -212 0
-469 464 212 0
469 -464 212 0
-469 -464 -212 0
464 -470 0
469 -470 0
-464 -469 470 0
136 -471 0
60 -471 0
-136 -60 471 0
-470 468 0
-471 468 0
470 471 -468 0
61 137 -473 0
-61 137 473 0
61 -137 473 0
-61 -137 -473 0
473 468 -213 0
-473 468 213 0
473 -468 213 0
-473 -468 -213 0
468 -474 0
473 -474 0
-468 -473 474 0
137 -475 0
61 -475 0
-137 -61 475 0
-474 472 0
-475 472 0
474 475 -472 0
62 138 -477 0
-62 138 477 0
62 -138 477 0
-62 -138 -477 0
477 472 -214 0
-477 472 214 0
477 -472 214 0
-477 -472 -214 0
472 -478 0
477 -478 0
-472 -477 478 0
138 -479 0
62 -479 0
-138 -62 479 0
-478 476 0
-479 476 0
478 479 -476 0
63 139 -481 0
-63 139 481 0
63 -139 481 0
-63 -139 -481 0
481 476 -215 0
-481 476 215 0
481 -476 215 0
-481 -476 -215 0
476 -482 0
481 -482 0
-476 -481 482 0
139 -483 0
63 -483 0
-139 -63 483 0
-482 480 0
-483 480 0
482 483 -480 0
64 140 -485 0
-64 140 485 0
64 -140 485 0
-64 -140 -485 0
485 480 -216 0
-485 480 216 0
485 -480 216 0
-485 -480 -216 0
480 -486 0
485 -486 0
-480 -485 486 0
140 -487 0
64 -487 0
-140 -64 487 0
-486 484 0
-487 484 0
486 487 -484 0
65 141 -489 0
-65 141 489 0
65 -141 489 0
-65 -141 -489 0
489 484 -217 0
-489 484 217 0
489 -484 217 0
-489 -484 -217 0
484 -490 0
489 -490 0
-484 -489 490 0
141 -491 0
65 -491 0
-141 -65 491 0
-490 488 0
-491 488 0
490 491 -488 0
66 142 -493 0
-66 142 493 0
66 -142 493 0
-66 -142 -493 0
493 488 -218 0
-493 488 218 0
493 -488 218 0
-493 -488 -218 0
488 -494 0
493 -494 0
-488 -493 494 0
142 -495 0
66 -495 0
-142 -66 495 0
-494 492 0
-495 492 0
494 495 -492 0
67 143 -497 0
-67 143 497 0
67 -143 497 0
-67 -143 -497 0
497 492 -219 0
-497 492 219 0
497 -492 219 0
-497 -492 -219 0
492 -498 0
497 -498 0
-492 -497 498 0
143 -499 0
67 -499 0
-143 -67 499 0
-498 496 0
-499 496 0
498 499 -496 0
68 144 -501 0
-68 144 501 0
68 -144 501 0
-68 -144 -501 0
501 496 -220 0
-501 496 220 0
501 -496 220 0
-501 -496 -220 0
496 -502 0
501 -502 0
-496 -501 502 0
144 -503 0
68 -503 0
-144 -68 503 0
-502 500 0
-503 500 0
502 503 -500 0
69 145 -505 0
-69 145 505 0
69 -145 505 0
-69 -145 -505 0
505 500 -221 0
-505 500 221 0
505 -500 221 0
-505 -500 -221 0
500 -506 0
505 -506 0
-500 -505 506 0
145 -507 0
69 -507 0
-145 -69 507 0
-506 504 0
-507 504 0
506 507 -504 0
70 146 -509 0
-70 146 509 0
70 -146 509 0
-70 -146 -509 0
509 504 -222 0
-509 504 222 0
509 -504 222 0
-509 -504 -222 0
504 -510 0
509 -510 0
-504 -509 510 0
146 -511 0
70 -511 0
-146 -70 511 0
-510 508 0
-511 508 0
510 511 -508 0
71 147 -513 0
-71 147 513 0
71 -147 513 0
-71 -147 -513 0
513 508 -223 0
-513 508 223 0
513 -508 223 0
-513 -508 -223 0
508 -514 0
513 -514 0
-508 -513 514 0
147 -515 0
71 -515 0
-147 -71 515 0
-514 512 0
-515 512 0
514 515 -512 0
72 148 -517 0
-72 148 517 0
72 -148 517 0
-72 -148 -517 0
517 512 -224 0
-517 512 224 0
517 -512 224 0
-517 -512 -224 0
512 -518 0
517 -518 0
-512 -517 518 0
148 -519 0
72 -519 0
-148 -72 519 0
-518 516 0
-519 516 0
518 519 -516 0
73 149 -521 0
-73 149 521 0
73 -149 521 0
-73 -149 -521 0
521 516 -225 0
-521 516 225 0
521 -516 225 0
-521 -516 -225 0
516 -522 0
521 -522 0
-516 -521 522 0
149 -523 0
73 -523 0
-149 -73 523 0
-522 520 0
-523 520 0
522 523 -520 0
74 150 -525 0
-74 150 525 0
74 -150 525 0
-74 -150 -525 0
525 520 -226 0
-525 520 226 0
525 -520 226 0
-525 -520 -226 0
520 -526 0
525 -526 0
-520 -525 526 0
150 -527 0
74 -527 0
-150 -74 527 0
-526 524 0
-527 524 0
526 527 -524 0
75 151 -529 0
-75 151 529 0
75 -151 529 0
-75 -151 -529 0
529 524 -227 0
-529 524 227 0
529 -524 227 0
-529 -524 -227 0
524 -530 0
529 -530 0
-524 -529 530 0
151 -531 0
75 -531 0
-151 -75 531 0
-530 528 0
-531 528 0
530 531 -528 0
76 152 -532 0
-76 152 532 0
76 -152 532 0
-76 -152 -532 0
532 528 -228 0
-532 528 228 0
532 -528 228 0
-532 -528 -228 0
528 -533 0
532 -533 0
-528 -532 533 0
152 -534 0
76 -534 0
-152 -76 534 0
-533 229 0
-534 229 0
533 534 -229 0
